Reading model...
...model read.
creating competitive generators file...
...competitive generators recorded.
Loading data...
..data read.
Compiling instance...
...instance created.
Solving...

Welcome to IBM(R) ILOG(R) CPLEX(R) Interactive Optimizer 12.10.0.0
  with Simplex, Mixed Integer & Barrier Optimizers
5725-A06 5725-A29 5724-Y48 5724-Y49 5724-Y54 5724-Y55 5655-Y21
Copyright IBM Corp. 1988, 2019.  All Rights Reserved.

Type 'help' for a list of available commands.
Type 'help' followed by a command name for more
information on commands.

CPLEX> Logfile 'cplex.log' closed.
Logfile 'C:\Users\wenmi\Desktop\competitiveMPEC\logs\tmpkp5nvcds.cplex.log' open.
CPLEX> New value for parallel optimization mode: -1
CPLEX> New value for mixed integer optimality gap tolerance: 0.3
CPLEX> New value for deterministic time limit in ticks: 300000
CPLEX> Problem 'C:\Users\wenmi\Desktop\competitiveMPEC\logs\tmprzrwhtjx.pyomo.lp' read.
Read time = 0.06 sec. (2.89 ticks)
CPLEX> Problem name         : C:\Users\wenmi\Desktop\competitiveMPEC\logs\tmprzrwhtjx.pyomo.lp
Objective sense      : Minimize
Variables            :   25814  [Nneg: 1,  Box: 21421,  Free: 4392]
Objective nonzeros   :    2496
Linear constraints   :   27177  [Less: 13813,  Greater: 4416,  Equal: 8948]
  Nonzeros           :   86029
  RHS nonzeros       :   12091

Variables            : Min LB: -5000.000        Max UB: 50000.00       
Objective nonzeros   : Min   : 15.73158         Max   : 124.0997       
Linear constraints   :
  Nonzeros           : Min   : 0.9219544        Max   : 3000.000       
  RHS nonzeros       : Min   : 0.1000000        Max   : 2500.000       
CPLEX> Version identifier: 12.10.0.0 | 2019-11-26 | 843d4de2ae
CPXPARAM_Parallel                                -1
CPXPARAM_DetTimeLimit                            300000
CPXPARAM_MIP_Tolerances_MIPGap                   0.29999999999999999
Parallel mode: opportunistic, using up to 8 threads for concurrent optimization:
 * Starting dual Simplex on 1 thread...
 * Starting Barrier on 6 threads...
 * Starting primal Simplex on 1 thread...
Tried aggregator 1 time.
LP Presolve eliminated 21930 rows and 17704 columns.
Aggregator did 737 substitutions.
Reduced LP has 4510 rows, 7373 columns, and 18917 nonzeros.
Presolve time = 0.06 sec. (26.12 ticks)
Symmetry aggregator did 5012 additional substitutions.
Initializing dual steep norms . . .

Iteration log . . .
Iteration:     1   Dual objective     =             0.000000
Perturbation started.
Iteration:   101   Dual objective     =             0.000000
Iteration:   293   Dual objective     =             1.845633
Iteration:   467   Dual objective     =             2.222125
Iteration:   644   Dual objective     =             2.262778
Iteration:   796   Dual objective     =        150801.600370
Iteration:   938   Dual objective     =        175983.774432
Removing perturbation.

Dual crossover.
  Dual:  Fixing 2 variables.
        1 DMoves:  Infeasibility  0.00000000e+00  Objective  1.81305995e+05
        0 DMoves:  Infeasibility  0.00000000e+00  Objective  1.81305995e+05
  Dual:  Pushed 0, exchanged 2.
  Primal:  Fixing 3 variables.
        2 PMoves:  Infeasibility  6.37783160e-11  Objective  1.81305995e+05
        0 PMoves:  Infeasibility  6.37783160e-11  Objective  1.81305995e+05
  Primal:  Pushed 3, exchanged 0.

Dual simplex solved model.


Dual simplex - Optimal:  Objective =  1.8130599540e+05
Solution time =    0.16 sec.  Iterations = 1075 (0)
Deterministic time = 64.57 ticks  (413.92 ticks/sec)

CPLEX> Solution written to file 'C:\Users\wenmi\Desktop\competitiveMPEC\logs\tmp7g7a9wrs.cplex.sol'.
CPLEX> Exporting results... 
